1000 1670
1 2 3 4 5 6 7 8 9 10 11 12 13 14 15 16 17 18 19 20 21 22 23 24 25 26 27 28 29 30 31 32 33 34 35 36 37 38 39 40 41 42 43 44 45
0 35 46 47 48 49 50 51 52 53 54 55 56 57 58 59 60 61 62 63 64 65 66
0 6 15 43 44 67 68 69 70 71 72 73 74 75 76 77 78 79 80 81 82 83 84 85 86 87 88 89 90 91 92 93 94 95 96 97 98 99 100 101 102 103 104 105 106
0 26 107 108 109 110 111 112 113 114 115 116 117 118 119 120 121 122 123 124 125 126 127 128 129 130 131 132 133 134 135 136 137 138 139 140 141 142 143 144 145 146 147 148 149 150 151 152 153 154 155 156 157 158 159 160 161 162 163 164 165 166 167 168 169 170 171 172 173 174 175 176 177 178 179 180 181 182 183 184 185 186 187 188 189 190 191 192 193 194 195 196 197 198 199 200 201 202 203 204 205 206 207 208 209 210 211 212 213 214 215 216 217 218 219 220 221 222 223 224 225 226 227 228 229 230 231 232 233 234 235 236 237 238 239 240 241 242 243 244 245 246 247 248 249 250 251 252 253 254 255 256 257 258 259 260 261 262 263 264 265 266 267 268 269 270 271 272 273 274 275 276 277 278 279 280 281 282 283 284 285 286 287 288 289 290 291 292 293 294 295 296 297 298 299 300 301 302 303 304 305 306 307 308 309 310 311 312 313 314 315 316 317 318 319 320 321 322 323 324 325 326 327 328 329 330 331 332 333 334 335 336 337 338 339 340 341 342 343 344 345 346 347 348 349 350 351 352 353 354 355 356 357 358 359 360 361 362 363 364 365 366 367 368 369 370 371 372 373 374 375 376 377 378
0 29 115 120 170 186 360 371 379 380 381 382 383 384 385 386 387 388 389 390 391 392 393 394 395 396 397 398 399 400 401 402 403 404 405 406 407 408 409 410 411 412 413 414 415 416 417 418 419 420 421 422 423 424 425 426 427 428 429 430 431 432 433 434 435 436 437 438 439 440 441 442 443 444 445 446 447 448 449 450 451 452 453 454 455 456 457 458 459 460 461 462 463 464 465 466 467 468 469 470 471 472 473 474 475 476 477 478 479 480 481 482 483 484 485 486 487 488 489 490 491 492 493 494 495 496 497 498 499 500 501 502 503 504 505 506 507 508 509 510 511 512 513 514 515 516 517 518 519 520 521 522 523 524 525 526 527 528 529 530 531 532 533 534 535 536 537 538 539 540 541 542 543 544 545 546 547 548 549 550 551 552 553 554 555 556 557 558 559 560 561 562 563 564 565 566 567 568 569 570 571 572 573 574 575 576 577 578 579 580 581 582 583 584 585 586 587 588 589 590 591 592 593 594 595 596 597 598 599 600 601 602 603 604 605 606 607 608 609 610 611 612 613 614 615 616 617 618 619 620 621 622 623 624 625 626 627 628 629 630 631 632 633 634 635 636 637 638 639 640 641 642 643 644 645 646 647 648 649 650 651 652 653 654 655 656 657 658 659 660 661 662 663 664 665 666 667 668 669 670 671 672 673 674 675 676 677 678 679 680 681 682 683 684 685 686 687 688 689 690 691 692 693 694 695 696 697 698 699 700 701 702 703 704 705 706 707 708 709 710 711 712 713 714 715 716 717 718 719 720 721 722 723 724 725 726 727 728 729 730 731 732 733 734 735 736 737 738 739 740 741 742 743 744 745 746 747 748 749 750 751 752 753 754 755 756 757 758 759 760 761 762 763 764 765 766 767 768 769 770 771 772 773 774 775 776 777 778 779 780 781 782 783 784 785 786 787 788 789 790 791 792 793 794 795 796 797 798 799 800 801 802 803 804 805 806 807 808 809 810 811 812 813 814 815 816 817 818 819 820 821 822 823 824 825 826 827 828 829 830 831 832 833 834 835 836 837 838 839 840 841 842 843 844 845 846 847 848 849 850 851 852 853 854 855 856 857 858 859 860 861 862 863 864 865 866 867 868 869 870 871 872 873 874 875 876 877 878 879 880 881 882 883 884 885 886 887 888 889 890 891 892 893 894 895 896 897 898 899 900 901 902 903 904 905 906 907 908 909 910 911 912 913 914 915 916 917 918 919 920 921 922 923 924 925 926 927 928 929 930 931 932 933 934 935 936 937 938 939 940 941 942 943 944 945 946 947 948 949 950 951 952 953 954 955 956 957 958 959 960 961 962 963 964 965 966 967 968 969 970 971 972 973 974 975 976 977 978 979 980 981 982 983 984 985 986 987 988 989 990 991 992 993 994 995 996 997 998 999
0 62
0 2 14 21 22 43 82 101 103
0 37 39 42
0 10 11 17 19 23 26 27 30 31 34 40 76 84 112
0 29 66
0 8 23 27 28 30 31 40
0 8 31 40 84 93 112
0 21 28 30 45
0 17 21 45 99 112 557
0 6 21 22 28 36 43 112 295
0 2 34 44 71 84 85 88 89 93 94 100 112
0
0 8 13 19 21 32
0 45 50
0 8 17 21 27 30 34 99 618
0 45 99
0 6 12 13 14 17 19 24 28 32 38 43 45 82 85 99 295
0 6 14 30 67 84 101
0 8 10 27 28 30 31 34 62 66
0 21 28 33 43 82 85 96
0 29
0 3 8 34 112
0 8 10 19 23 30 31
0 10 12 14 21 23 24 45 52 57 76 82
0 4 9 25 62
0 8 10 12 19 22 23 27 31 45
0 8 10 11 23 27 30 64
0 17 21 36
0 24
0 8 15 19 23 26 44 68 82 84 101 112
0 1 41 45 47 49 50 51 52 54 57 65 99
0 14 32 84 86 94 99
0 7 39
0 21
0 7 37
0 8 10 11 52 56
0 35
0 7
0 2 6 14 21 24 74 82 85 101
0 2 15 34 84 100
0 12 13 18 20 21 28 30 35 99
1 60
1 35 48 49 51 52 56 64 65
1 47 51 53 55 56 61
1 35 47 50 52 65 295
1 18 35 49 51 52 64 65
1 35 47 48 50 52 54 56 61 99
1 28 35 40 47 49 50 51 54 64 99
1 48 55 59 61
1 35 51 52 60 99
1 48 53 56 60
1 40 47 48 51 55
1 28 35 60
1
1 53
1 46 54 55 57 62 64 66
1 48 51 53
1 5 23 29 60 66
1
1 31 47 50 52 60 65
1 35 47 49 50 64
1 9 23 60 62
2 22 68 69 71 72 73 75 76 79 81 83 84 88 91 100 101 102 104 106
2 34 67 69 71 72 73 79 81 83 84 86 87 98 99 100 104
2 67 68 70 71 72 73 75 79 83 84 87 89 94 98 99 102 106
2 69 71 75 79 80 81 83 85 87 91 95 99 104 106
2 15 67 68 69 70 73 75 79 83 84 87 88 91 92 94 96 98 100 102 106 112
2 67 68 69 73 75 76 79 81 84 90 94 99 100 101 106
2 67 68 69 71 72 81 83 84 86 87 98 99 100 101
2 43 78
2 67 69 70 71 72 76 79 84 87 102 106
2 8 28 67 72 75 79 83 84 102 106
2 78
2 74 77
2 67 68 69 70 71 72 75 76 83 84 86 87 94 98 102 104 106
2 70 95 245
2 67 68 70 72 73 83 84 86 87 98
2 6 21 24 28 34 43 84 101
2 67 68 69 70 71 73 76 79 81 85 87 89 92 94 98 99 100 101 104
2 8 11 15 22 34 36 44 67 68 69 71 72 73 75 76 79 81 82 85 88 89 90 94 99 100 101 102 104 106
2 15 21 24 43 70 83 84 88 89 94 96
2 36 68 73 79 81 87 94 106
2 68 69 70 71 73 75 79 81 83 86 88 91 95 98 104 106
2 15 67 71 84 85 87 97 100 102
2 15 69 83 84 85 94 98 99
2 72 84 99
2 67 70 71 87
2 71 83 96 98
2 11 15 101
2 15 36 69 71 72 79 83 84 85 86 89 97 98 99 100 102 105 106
2 70 80 87
2 24 71 85 92
2 88 94 100 105
2 68 69 71 73 79 81 83 87 89 92 94 104
2 13 19 20 21 35 36 45 51 52 54 68 69 70 72 73 83 84 89 90 94 101
2 15 44 67 68 71 72 73 83 84 88 94 97 102 104
2 6 22 34 43 67 72 73 82 83 84 93 99 102
2 67 69 71 75 76 79 84 88 94 100 101 106
2 6
2 67 68 70 79 83 84 87 98 100
2 94 97
2 67 69 70 71 72 75 76 79 84 86 87 94 102
3
3
3
3 219 342 356 365
3
3 8 11 13 14 15 26 34 71
3
3
3 4
3
3
3
3 124 131 141 186 307
3 4
3 130 143
3 300
3 291
3 119
3 294 350
3
3 209
3
3
3 121
3 119 141 256 264 337 343
3
3
3 269
3 162 280 376
3 164 227 261 266 293 352 655
3 287
3 190
3
3 317
3 119 131 144 183 214 374
3
3 121
3 141 183 191 256 307
3 634
3
3 197 298
3
3 151 312
3 152 188 290
3 149
3 150 290
3 324
3 232
3 165 166 317 347
3 328
3
3
3
3
3
3 135 280 316
3
3 136 343
3 155 166 317
3 155 165 317 326 347 353
3 221 998
3 273 364 366
3 192 276
3 4 211 240
3
3 199 207 261 266 293
3 221 260
3
3
3
3
3
3 355
3 327 339
3 972
3
3 141 144
3
3
3 4 119 307 314
3
3 150
3
3 138 207 268 327 339 346
3 144 283 355
3 169 276
3 286 295
3
3
3 343 617
3 147 199 298 339
3
3 172 197 293 298
3
3
3 341
3
3
3
3 309
3 172 190 217 222 293
3 234 249
3 127 294
3
3 170
3
3 296
3 141 343
3
3
3 207 222
3
3 110 342
3 324
3 167 173
3 207 217 339 521
3
3 607
3
3 242 296 324
3 136 261
3 366
3 234 276 308
3 348
3 237
3 154 292
3
3 208 229 249 255 308
3 924
3
3 231 363 774
3
3
3 170 269
3
3 226 296
3 339
3
3 80
3
3
3 271
3 208 234
3 262
3
3
3 306 365
3
3 234
3 131 144 307 344
3
3
3 273
3 173
3 136 172 227 293 352
3 250
3 317
3 131 343
3 320
3 136 172
3 300
3 190
3 134 240
3 278
3 248
3
3 168 259 366
3 311
3
3 169 192 229 281
3
3 270 336 344
3
3 135 162 367 376
3 276
3 354
3 191
3 601
3 369
3 193
3 137
3
3 719
3 150 152 382
3 123
3 232 311
3 136 172 199 207 261 521
3 125 209
3 14 21 49 193
3 213 226 242
3
3 147 197 199
3
3 122 267 349 359 538
3
3
3 324
3
3 336
3 253 341
3 119 144 186 256 355
3 229 234
3 206
3
3 274 292
3 149
3 352 655
3 186
3
3 162 367
3 140 155 165 166 263 347 353
3
3
3 265
3
3
3 535
3 153 220 226 303
3
3 166
3 180 190
3 156
3
3
3
3 356
3
3
3
3 278 305
3 131 344
3
3 180 190 197 222 243 505
3
3 202 306
3 110 219
3 131 164 196 214 264
3 256 278 337
3
3 190 505
3 155 166 317
3 230
3 300
3 125
3
3 136 261 313 655 987
3 166 317
3 282
3 179 191 307
3 110 332
3
3
3 300 717
3 4
3
3
3 237 377
3 168
3 110 253
3 168 228 273
3 280 316
3
3 285
3
3 4
3
3
3 141
3 806
3 135 280
3 363
3
4
4
4
4 290
4
4
4
4
4
4
4
4
4
4
4
4
4
4
4
4
4 778
4
4
4
4
4
4
4
4
4
4
4
4
4
4
4 428
4
4
4
4
4
4
4
4 905
4
4
4
4
4
4 414
4
4
4
4
4
4
4
4 451
4
4
4
4
4
4
4 579
4
4
4
4
4
4
4
4 436 767
4
4
4 843
4 502 871
4
4
4 954
4
4
4
4
4 669
4
4
4 699
4
4 704
4
4
4 678
4
4
4
4
4
4
4
4
4
4
4
4
4
4 538 712
4
4
4
4
4
4
4
4
4
4
4
4
4
4 769
4
4
4 455
4 859
4
4 339 346
4
4
4
4
4
4 932
4 769
4
4
4
4
4
4
4
4
4 222 293
4
4
4
4
4
4
4
4
4
4 667
4
4
4
4 323 568 678 925
4
4
4 300 485
4
4
4
4
4 871
4
4
4
4
4
4
4
4
4
4
4
4 656 855
4
4 13
4 997
4
4
4
4
4
4 770
4 902
4
4
4 535 922 925
4
4
4
4
4 704 769
4
4
4
4
4
4 443
4
4
4
4
4
4
4 619 685 807 938
4
4
4
4 896
4
4
4
4
4 905
4
4
4
4
4
4 284
4
4
4 748
4
4
4 224
4
4
4
4
4
4
4
4
4
4 196
4 19
4 586 659 718 738 988
4
4
4
4
4 656 991
4
4
4
4
4
4
4
4
4
4 145
4
4
4
4
4
4
4
4
4
4
4
4
4 712
4
4 976
4
4
4
4
4
4 136 313 352
4 555 624 776 991
4
4
4 619 738
4
4
4
4
4
4
4
4 531
4
4 463
4
4
4
4
4
4
4
4
4 471 535 704
4
4
4
4
4
4 972
4 586
4
4
4
4
4
4 769
4
4
4 845
4
4
4 762
4
4 466
4
4
4
4
4 468 573 678 817 943
4
4
4
4
4
4
4 985
4 485 647
4
4
4
4
4 359
4 619 738
4 289
4
4
4
4 871
4
4
4
4
4
4
4
4
4
4
4
4
4
4 774
4 619 659 718
4
4
4
4
4
4
4
4
4
4 604
4
4
4
4
4 902
4
4
4
4
4
4 916
4
4
4 697
4
4
4
4
4 451
4
4 499 512 573 691 770
4 564 769
4
4
4
4 237 737 866
4
4 656 991
4
4 399
4
4
4
4
4
4
4
4
4
4
4
4
4
4
4
4
4
4 871
4
4
4
4
4
4
4
4
4
4 375
4 586 871
4
4
4
4
4
4
4
4
4
4 704 943
4
4
4
4
4
4
4
4
4
4
4
4
4
4
4
4
4
4
4
4
4
4 952
4
4
4
4 454
4
4 694
4
4
4
4
4
4
4
4
4 917 991
4 555
4
4
4
4 503
4 921
4
4
4
4
4 946
4 774
4
4
4
4
4 455 543 723 796 807
4
4
4
4
4
4
4 905
4
4
4
4
4
4
4
4
4
4
4
4
4
4
4
4
4
4 590
4
4
4
4
4
4 565 753
4
4
4 422 595 878
4
4
4
4
4
4
4
4
4
4
4 759
4 854
4
4
4
4 860 943 964 999
4 568 925
4
4 235
4 535 568 922
4
4
4
4
4
4
4 511 966
4 955
4
4
4
4
4 586
4
4
4
4
4 704 817 921 964
4
4
4 865
4
4
4
4
4
4 839
4
4 458
4 933
4
4
4
4
4
4
4
4
4 921 943
4
4 932
4
4
4
4
4
4 181 684
4
4
4
4 649
4
4
4
4
4
4
4
4
4 711
4
4 352
4 619
4
4
4 624 656 776 854
4
4
4
4
4
4 558
4 167
4 921
